tsp_instances/TSP50/instance113.tsp
NODE_COORD_SECTION
0 174 2
1 32 114
2 69 44
3 24 67
4 198 199
5 147 21
6 28 165
7 167 200
8 146 148
9 48 197
10 155 129
11 102 134
12 190 25
13 196 173
14 167 187
15 157 162
16 156 70
17 69 34
18 104 140
19 14 55
20 34 132
21 173 58
22 152 28
23 186 58
24 134 12
25 1 114
26 69 6
27 163 0
28 157 172
29 144 192
30 61 134
31 30 172
32 71 151
33 155 126
34 22 162
35 82 120
36 162 51
37 182 86
38 70 182
39 5 167
40 57 38
41 39 50
42 47 145
43 79 189
44 194 22
45 29 125
46 191 42
47 128 127
48 19 114
49 9 6
