tsp_instances/TSP50/instance113.opt.tour
TOUR_SECTION
1
28
23
6
25
27
18
3
41
42
50
20
4
26
49
2
46
21
43
7
35
40
32
10
44
39
33
31
36
12
19
48
34
11
9
16
29
30
15
8
5
14
38
17
37
22
24
47
13
45
-1